15	2	2
2395	2395	
249	965	1030	
412	576	903	
520	976	1673	
685	332	612	
706	897	1543	
462	505	787	
307	415	606	
890	445	585	
68	540	730	
516	220	329	
838	959	1122	
799	836	1546	
720	713	1062	
205	513	616	
700	690	1065	
